% demand
num_movements = 27;
loading_factor = [950, 1950, 1650, 1650, 800, 1400, 900, 1700, 1350, 1500, 1500, 950, 1400, 1100, 900, 1550, 1350, 800, 1050, 1650, 900, 1250, 1500, 1150, 1950, 1350, 900];
pickup_time = [0, 1, 1, 1, 1, 3, 4, 5, 5, 5, 5, 6, 8, 8, 9, 9, 9, 10, 11, 11, 11, 11, 11, 12, 12, 12, 13];
delivery_time = [3, 4, 4, 3, 4, 4, 5, 9, 8, 8, 8, 8, 9, 11, 11, 11, 11, 11, 13, 12, 12, 12, 13, 14, 13, 13, 14];

% transporter definition
total_capacity = 7000;
num_decks = 3;
capacity = [3000, 1000, 3000];

% ways out of decks
num_ways_out = 1;
paths_out = array3d(decks, ways_out, decks, [
% ways out of deck d1
2, 3, 0, 

% ways out of deck d2
3, 0, 0, 

% ways out of deck d3
0, 0, 0,	

]);

